tsp_instances/TSP20/instance61.tsp
NODE_COORD_SECTION
0 164 177
1 174 87
2 50 118
3 67 175
4 25 62
5 115 188
6 10 158
7 185 103
8 8 108
9 195 105
10 47 182
11 4 13
12 139 30
13 4 173
14 56 102
15 58 4
16 10 162
17 148 148
18 166 59
19 6 90
