tsp_instances/TSP20/instance61.opt.tour
TOUR_SECTION
1
6
4
11
14
17
7
3
15
9
20
5
12
16
13
19
2
8
10
18
-1